param n:=4;
param m:=5;
param gap_p:=1;
param mis_p:=1;
param r:=-1;
param a :=
1 1 0 
1 2 0 
1 3 0 
1 4 0 
1 5 0 
2 1 0 
2 2 0 
2 3 0 
2 4 1 
2 5 0 
3 1 0 
3 2 0 
3 3 0 
3 4 0 
3 5 0 
4 1 0 
4 2 0 
4 3 0 
4 4 0 
4 5 0 
;
